
  19    0


   0  10 2 3 4 5 13 14 15 16 17 18 
   2   4 12 11 7 6 
   9   4 10 8 7 6 
   8   3 9 7 6 
   7   2 8 6 
  10   1 19
   3   1 19
   3   1 19
   1   1 19
   9   1 19
   6   1 19
   4   1 19
   2   1 19
   1   1 19
   7   1 19
   6   1 19
   2   1 19
   6   1 19
   0   0 
